\ENCODING=ISO-8859-1
\Problem name: IloCplex

Maximize
 obj1: 0.957645869843982 qL_cond_46 + 0.0423541301560182 qL_cond_43 - 1
Subject To
 c1:  - 0.149452196648338 qL_cond_46 - 0.149452196648338 qL_cond_43 + qL_0
      - 0.149452196648338 qL_cond_42 - 0.149452196648338 qL_cond_44
      - 0.149452196648338 qL_cond_45  = 1
 c2:  qF_1 - 0.149452196648338 qF_cond_22 - 0.149452196648338 qF_cond_23
      - 0.149452196648338 qF_cond_24 - 0.149452196648338 qF_cond_25
      - 0.149452196648338 qF_cond_26 - 0.0420769773204586 qF_cond_27
      - 0.0420769773204586 qF_cond_28 - 0.0420769773204586 qF_cond_29
      - 0.0420769773204586 qF_cond_30 - 0.0420769773204586 qF_cond_31
      - 0.00660987321960443 qF_cond_32 - 0.00660987321960443 qF_cond_33
      - 0.00660987321960443 qF_cond_34 - 0.00660987321960443 qF_cond_35
      - 0.00660987321960443 qF_cond_36 - 0.00186095281159921 qF_cond_37
      - 0.00186095281159921 qF_cond_38 - 0.00186095281159921 qF_cond_39
      - 0.00186095281159921 qF_cond_40 - 0.00186095281159921 qF_cond_41  = 0
 c3:  wF_2  = 1
 c4:  wF_3  = 1
 c5:  wF_4  = 1
 c6:  wF_5  = 1
 c7:  wF_6  = 1
 c8:  wF_7  = 1
 c9:  wF_8  = 1
 c10: wF_9  = 1
 c11: wF_10  = 1
 c12: wF_11  = 1
 c13: wF_12  = 1
 c14: wF_13  = 1
 c15: wF_14  = 1
 c16: wF_15  = 1
 c17: wF_16  = 1
 c18: wF_17  = 1
 c19: wF_18  = 1
 c20: wF_19  = 1
 c21: wF_20  = 1
 c22: wF_21  = 1
 c23: sigma_L_0 + sigma_L_1  = 1
 c24: sigma_L_2 + sigma_L_3  = 1
Bounds
-1000 <= qL_cond_46 <= 1000
-1000 <= qL_cond_43 <= 1000
-1000 <= qL_0 <= 1000
-1000 <= qL_cond_42 <= 1000
-1000 <= qL_cond_44 <= 1000
-1000 <= qL_cond_45 <= 1000
-1000 <= qF_1 <= 1000
-1000 <= qF_cond_22 <= 1000
-1000 <= qF_cond_23 <= 1000
-1000 <= qF_cond_24 <= 1000
-1000 <= qF_cond_25 <= 1000
-1000 <= qF_cond_26 <= 1000
-1000 <= qF_cond_27 <= 1000
-1000 <= qF_cond_28 <= 1000
-1000 <= qF_cond_29 <= 1000
-1000 <= qF_cond_30 <= 1000
-1000 <= qF_cond_31 <= 1000
-1000 <= qF_cond_32 <= 1000
-1000 <= qF_cond_33 <= 1000
-1000 <= qF_cond_34 <= 1000
-1000 <= qF_cond_35 <= 1000
-1000 <= qF_cond_36 <= 1000
-1000 <= qF_cond_37 <= 1000
-1000 <= qF_cond_38 <= 1000
-1000 <= qF_cond_39 <= 1000
-1000 <= qF_cond_40 <= 1000
-1000 <= qF_cond_41 <= 1000
 0 <= wF_2 <= 1
 0 <= wF_3 <= 1
 0 <= wF_4 <= 1
 0 <= wF_5 <= 1
 0 <= wF_6 <= 1
 0 <= wF_7 <= 1
 0 <= wF_8 <= 1
 0 <= wF_9 <= 1
 0 <= wF_10 <= 1
 0 <= wF_11 <= 1
 0 <= wF_12 <= 1
 0 <= wF_13 <= 1
 0 <= wF_14 <= 1
 0 <= wF_15 <= 1
 0 <= wF_16 <= 1
 0 <= wF_17 <= 1
 0 <= wF_18 <= 1
 0 <= wF_19 <= 1
 0 <= wF_20 <= 1
 0 <= wF_21 <= 1
 0 <= sigma_L_0 <= 1
 0 <= sigma_L_1 <= 1
 0 <= sigma_L_2 <= 1
 0 <= sigma_L_3 <= 1
Binaries
 wF_2  wF_3  wF_4  wF_5  wF_6  wF_7  wF_8  wF_9  wF_10  wF_11  wF_12  wF_13 
 wF_14  wF_15  wF_16  wF_17  wF_18  wF_19  wF_20  wF_21 
End
